0 0 0 0
0 1 0 0
0 2 0 0
0 3 0 0
0 4 0 6
0 5 0 7
0 6 0 3
0 7 0 6
0 8 0 8
0 9 0 9
0 10 0 7
0 11 0 12
0 12 0 9
0 13 0 11
0 14 0 12
0 15 0 15
0 16 0 13
0 17 2 6
0 18 0 9
0 19 0 14
0 20 0 10
0 21 1 13
0 22 0 15
0 23 0 11
0 24 1 21
0 25 0 17
0 26 0 17
0 27 0 21
0 28 0 27
0 29 0 24
0 30 1 15
0 31 0 29
